2449434
59,22,48,53,12,19,47,1,64,46,3,55,39,31,11,41,40,24,29,37,6,63,5,4,18,0,2,20,60,23,62,44,16,15,14,57,26,8,7,58,49,27,35,52,50,34,67,61,38,43,36,13,51,17,9,56,30,21,32,42,66,65,10,54,25,33,45,28
